
******************************************************************************
This program contains Ipopt, a library for large-scale nonlinear optimization.
 Ipopt is released as open source code under the Eclipse Public License (EPL).
         For more information visit http://projects.coin-or.org/Ipopt
******************************************************************************

This is Ipopt version 3.12.6, running with linear solver ma57.

Number of nonzeros in equality constraint Jacobian...:        0
Number of nonzeros in inequality constraint Jacobian.:        0
Number of nonzeros in Lagrangian Hessian.............:       55

Total number of variables............................:       10
                     variables with only lower bounds:        0
                variables with lower and upper bounds:        0
                     variables with only upper bounds:        0
Total number of equality constraints.................:        0
Total number of inequality constraints...............:        0
        inequality constraints with only lower bounds:        0
   inequality constraints with lower and upper bounds:        0
        inequality constraints with only upper bounds:        0

iter    objective    inf_pr   inf_du lg(mu)  ||d||  lg(rg) alpha_du alpha_pr  ls
   0  2.8184376e+03 0.00e+00 1.00e+02  -1.0 0.00e+00    -  0.00e+00 0.00e+00   0
   1  2.6994592e+03 0.00e+00 1.09e+01  -1.0 5.25e-03   2.0 1.00e+00 1.00e+00f  1
   2  2.6895603e+03 0.00e+00 4.32e-01  -1.0 1.30e-02   1.5 1.00e+00 1.00e+00f  1
   3  2.6686046e+03 0.00e+00 3.94e-01  -1.7 3.54e-02   1.0 1.00e+00 1.00e+00f  1
   4  2.6269840e+03 0.00e+00 4.99e-01  -1.7 8.48e-02   0.6 1.00e+00 1.00e+00f  1
   5  2.5686427e+03 0.00e+00 8.31e-01  -1.7 1.78e-01   0.1 1.00e+00 1.00e+00f  1
   6  2.4815672e+03 0.00e+00 5.06e+00  -1.7 5.44e-01  -0.4 1.00e+00 1.00e+00f  1
   7  2.3916558e+03 0.00e+00 8.73e+01  -1.7 8.24e+00    -  1.00e+00 2.50e-01f  3
   8  2.3492035e+03 0.00e+00 5.64e+01  -1.7 7.81e-01  -0.9 1.00e+00 1.00e+00f  1
   9  2.3202750e+03 0.00e+00 1.67e+01  -1.7 1.93e-01  -0.4 1.00e+00 1.00e+00f  1
iter    objective    inf_pr   inf_du lg(mu)  ||d||  lg(rg) alpha_du alpha_pr  ls
  10  2.3028428e+03 0.00e+00 4.15e+01  -1.7 2.11e+01    -  1.00e+00 6.25e-02f  5
  11  2.2534312e+03 0.00e+00 1.42e+01  -1.7 2.32e+00    -  1.00e+00 1.00e+00f  1
  12  2.2412847e+03 0.00e+00 2.10e+01  -1.7 3.14e+00    -  1.00e+00 5.00e-01f  2
  13  2.2245847e+03 0.00e+00 5.16e-01  -1.7 8.90e-01    -  1.00e+00 1.00e+00f  1
  14  2.2184276e+03 0.00e+00 5.75e+00  -1.7 9.64e+00    -  1.00e+00 1.25e-01f  4
  15  2.2148501e+03 0.00e+00 1.18e+00  -1.7 6.52e-01    -  1.00e+00 1.00e+00f  1
  16  2.2140456e+03 0.00e+00 2.94e+00  -1.7 1.11e+00    -  1.00e+00 1.00e+00f  1
  17  2.2126106e+03 0.00e+00 5.13e-02  -1.7 3.45e-01    -  1.00e+00 1.00e+00f  1
  18  2.2123841e+03 0.00e+00 3.74e-01  -2.5 9.81e-01    -  1.00e+00 5.00e-01f  2
  19  2.2122884e+03 0.00e+00 1.73e-01  -2.5 3.81e-01    -  1.00e+00 1.00e+00f  1
iter    objective    inf_pr   inf_du lg(mu)  ||d||  lg(rg) alpha_du alpha_pr  ls
  20  2.2122650e+03 0.00e+00 5.82e-02  -2.5 2.38e-01    -  1.00e+00 1.00e+00f  1
  21  2.2122624e+03 0.00e+00 9.20e-03  -2.5 9.91e-02    -  1.00e+00 1.00e+00f  1
  22  2.2122623e+03 0.00e+00 2.63e-04  -3.8 1.70e-02    -  1.00e+00 1.00e+00f  1
  23  2.2122623e+03 0.00e+00 2.15e-07  -5.7 4.89e-04    -  1.00e+00 1.00e+00f  1
  24  2.2122623e+03 0.00e+00 1.13e-13  -8.6 4.02e-07    -  1.00e+00 1.00e+00f  1

Number of Iterations....: 24

                                   (scaled)                 (unscaled)
Objective...............:   4.6651695792791328e+00    2.2122622909073489e+03
Dual infeasibility......:   1.1294763853073534e-13    5.3560711421596352e-11
Constraint violation....:   0.0000000000000000e+00    0.0000000000000000e+00
Complementarity.........:   0.0000000000000000e+00    0.0000000000000000e+00
Overall NLP error.......:   1.1294763853073534e-13    5.3560711421596352e-11


Number of objective function evaluations             = 56
Number of objective gradient evaluations             = 25
Number of equality constraint evaluations            = 0
Number of inequality constraint evaluations          = 0
Number of equality constraint Jacobian evaluations   = 0
Number of inequality constraint Jacobian evaluations = 0
Number of Lagrangian Hessian evaluations             = 24
Total CPU secs in IPOPT (w/o function evaluations)   =      0.920
Total CPU secs in NLP function evaluations           =     19.140

EXIT: Optimal Solution Found.

 ** SUBROUTINE CUTEST_csetup: Warning. The problem has no general constraints. 
 ** Other tools may be preferable ** 

************************ CUTEst statistics ************************


 Package used            :  IPOPT
 Problem                 :  STRATEC   
 # variables             =              10
 # constraints           =               0
 # objective functions   =        0.8200000E+02
 # objective gradients   =        0.2600000E+02
 # objective Hessians    =        0.2500000E+02
 # Hessian-vector prdct  =        0.0000000E+00
 # constraints functions =        0.0000000E+00
 # constraints gradients =        0.0000000E+00
 # constraints Hessians  =        0.0000000E+00
 Exit code               =               0
 Final f                 =   0.2212262E+04
 Set up time             =            0.00 seconds
 Solve time              =           20.28 seconds


******************************************************************

System Time =      20.0179996490 s.
